# Solution for model Master Problem
# Objective value = 5.7083092684885582e+02
theta[1] 0
theta[2] 1.2499999999999978e-01
theta[3] 0
theta[4] 0
theta[5] 2.5000000000000006e-01
theta[6] 2.5000000000000022e-01
theta[7] 0
theta[8] 0
theta[9] 0
theta[10] 0
theta[11] 0
theta[12] 0
theta[13] 0
theta[14] 0
theta[15] 0
theta[16] 0
theta[17] 0
theta[18] 0
theta[19] 0
theta[20] 0
theta[21] 2.5000000000000044e-01
theta[22] 0
theta[23] 0
theta[24] 0
theta[25] 0
theta[26] 0
theta[27] 0
theta[28] 0
theta[29] 6.2500000000000022e-01
theta[30] 0
theta[31] 0
theta[32] 1.2499999999999986e-01
theta[33] 0
theta[34] 6.2500000000000022e-01
theta[35] 0
theta[36] 2.4999999999999992e-01
theta[37] 0.375
theta[38] 1.2500000000000033e-01
theta[39] 0
theta[40] 0.25
theta[41] 0
theta[42] 4.9999999999999989e-01
theta[43] 2.4999999999999997e-01
theta[44] 1.2500000000000011e-01
theta[45] 1.2499999999999986e-01
theta[46] 0
theta[47] 0
theta[48] 0
theta[49] 1.2499999999999989e-01
theta[50] 4.9999999999999989e-01
theta[51] 1.2500000000000006e-01
theta[52] 0
theta[53] 2.4999999999999992e-01
theta[54] 1.2499999999999978e-01
theta[55] 3.7499999999999978e-01
